cs272/scripts_6/8.lp
min: x1+x2+x3+x4+x5+x6+x7;
x4+x5+x6+x7+x1>=11;
x5+x6+x7+x1+x2>=7;
x6+x7+x1+x2+x3>=6;
x7+x1+x2+x3+x4>=9;
x1+x2+x3+x4+x5>=12;
x2+x3+x4+x5+x6>=5;
x3+x4+x5+x6+x7>=8;
int x1,x2,x3,x4,x5,x6,x7;
