cs272/scripts_6/8.sol

Value of objective function: 13.00000000

Actual values of the variables:
x1                              5
x2                              0
x3                              0
x4                              6
x5                              1
x6                              1
x7                              0
